
 102   30
  10   10   10   10   10   10   10   10   10   10   10   10   10   10   10   10   10   10   10   10   10   10   10   10   10   10   10   10   10   10

   0   0   0   0   0   0   0   0   0   0   0   0   0   0   0   0   0   0   0   0   0   0   0   0   0   0   0   0   0   0   0  26 2 3 4 5 6 7 8 9 10 11 13 14 15 16 17 18 19 20 22 25 26 27 29 31 34 39 
   9   1   0   0   0   3   0   0   0   0   0   0   0   0   0   0   0   0   0   0   0   0   0   0   0   0   0   0   1   0   1  17 101 71 58 55 54 51 50 49 45 44 38 37 35 33 30 23 12 
   4   9   0   0   0   5   0   0   0   0   0   4   0   0   0   0   0   0   0   3   0   0   3   0   0   0   0   0   3   0   0  17 99 71 68 64 63 60 59 58 54 50 49 46 45 43 35 32 23 
   2   0   0   0   0   0   0   0   0   0   0   0   0   0   0   0   0   0   0   0   0   0   0   0   0   0   0   0   0   0   0  13 100 68 64 63 59 55 50 46 44 42 32 30 21 
  10   0   0   0   0   0   0   0   0   0   0   0   0   0   0   0   0   0   0   5   0   0   0   0   0   0   0   0   0   0   0  19 101 100 99 68 63 61 60 59 58 55 52 48 47 45 42 36 35 33 32 
  10   0   0   0   0   0   0   0   5   0   0   0   0   0   2   0   0   0   0  10   0   0   0   0   0   0   0   0   6   1   0  16 71 68 65 63 62 58 56 54 53 50 48 47 44 43 36 24 
   9   0   1   0   0   0   0   0   0   0   0   0   0   0   0   0   0   0   0   0   1   0   0   0   0   0   1   0   0   0   0  12 97 64 63 59 56 54 46 42 38 33 32 21 
   8   0   0   0   0   7   1   0   3   0   2   0   2   0   0   0   0   0   0   0   9   0   0   0   1   0   0   0   0   0   0  10 100 98 63 59 54 47 45 42 32 21 
   8   0   0   0   0   0   0   0   0   1   0   6   0   0   0   0   1   0   0   0   5   0   0   0   0   0   0   0   0   6   0  17 99 98 95 65 64 63 61 60 59 54 48 47 46 45 42 35 32 
   2   0   0   0   0   0   0   0   0   6   0   0   0   0   0   0   0   0   0   0   0   0   0   0   0   0   0   0   0   0   0  21 101 97 96 95 91 71 70 69 67 66 65 64 63 61 59 57 54 53 48 47 46 
   1   0   0   0   0   0   0   0   0   0   5   0   0   0   0   2   0   0   0   0   0   0   0   0   0   1   0   0   0   7   0  15 100 99 87 63 62 60 59 57 53 48 47 46 45 35 33 
  10   7   0   1   0   7   0   2   0   0   6   0   0   0   0   0   0   0   0   0   0   0   0   0   4   0   0   0   0   6   0  17 98 96 92 91 69 68 67 66 65 64 60 59 57 53 48 46 41 
   7   0   0   0   0   0   0   0   0   0   0   0   0   0   0   0   0   0   0   0   0   0   0   0   0   0   0   0   0   0   0  11 100 70 69 65 64 63 59 48 46 45 28 
   9   0   0   0   0   0   0   5   0   0   0   7   7   0   0   0   0   0   1   0   0   0   0   0   0   0   0   0   6   0   0  17 100 99 98 96 92 91 69 68 67 66 65 64 60 57 53 43 40 
   4   0   0   0   0   0   0   0   0   0   0   0   0   0   0   0   0   1   5   0   0   0   0   0   0   0   0   0   0   0   0  11 101 92 70 64 63 59 57 48 46 44 30 
   8   0   0   0   1   0  10   0   0   5   0   0   0   0   0   0   0   0   0   0   0   0   0   1   0   7   3   0   0   0   5  10 59 58 55 53 48 47 43 42 36 35 
   2   0   3   0   0   6   0   0   7   0   8   0   0   0   3   7   0   9   0   0   0   0   0   0   0   0   0   3   0   0   0  18 96 95 91 86 80 77 70 69 67 66 65 64 62 59 54 53 48 46 
   1   0   0   0   0   0   5   0   0   0   0   0   0   4   0   0   0   0   0   0   0   1   0   0   0   0  10   0   0   0   0  16 98 95 92 91 87 69 68 67 63 61 60 59 57 53 48 40 
   2   0   0   0   5   3   0   4   3   0   0   0   0   0   0   4   0   0   0   0   5   0   0   0   0   0   0   0   0   0   0  10 99 97 91 59 57 53 52 48 46 36 
   4   0   0   0   0   0   0   0   0   0   0   0   0   0   0   0   0   0   0   0   0   0   0   0   0   4   0   0   0   0   0  15 96 95 94 92 90 87 84 70 68 67 61 57 53 45 44 
   4   0   0   0   0   0   0   8   0   0   0   0   0   0   0   0   0   0   0   0   0   0   0   0   0  10   0   0   0   0   0  18 101 99 95 94 93 91 87 86 82 71 69 67 65 62 61 57 49 48 
   3   0   8   0   0   0   0   5   0   0   9   0   0   0   0   0   0   0   0   0   0   0   0   0   0   0   0   0   0   0   0  15 96 95 91 88 87 78 77 70 69 66 62 60 57 48 46 
   8   0   0   5   0   0   8   0   0   0   0   0  10   2   0   0   0   0   0   0   0   0   0   0   6   0   0   0   0   0   0  18 100 95 94 93 91 87 86 82 81 76 70 69 62 61 57 53 48 47 
   7   0   0   0   0   0   0   0   0   0   0   0   0   0   0   0   0   0   0   0   9   0   3   0   0   0   0   0   8   3   0  18 100 99 98 94 92 91 89 88 81 80 78 77 70 69 64 61 59 51 
   5   0   0   0   8   0   0   0   0   0   0   8   0   0   0   8   0   0   0   0   0   0   0   0   7   0   0   0   0   0   0  14 96 95 92 89 85 81 80 76 73 70 68 64 59 44 
   3   0   0   0   0   0   6   0   0   0   0   0   0   0   0   0   0   0   0   0   0   0  10   0   6   0   0   0   0   0   0  12 98 90 84 82 70 69 67 66 61 53 49 42 
   8   0   0   0   0   0   0   0   0   0   0   0   0   0   0   7   0   0   0   0   0   0   0   0   0   0   0   0   0   0   0  13 99 98 97 96 94 91 86 78 65 61 58 56 43 
   2   0   0   0   0  10   0   0   0   0   5   0   0   0   0   4   0   0   0   0   0   7   0   0   0   0   0   0   0   0   0  16 96 95 93 91 89 88 87 85 84 83 82 67 66 62 61 58 
   9   0   0   0   0   0   0   0   0   0   6   0   0   0   0   0   0   0   0   0   0   0   0   0   5   0   6   0   0   0   0  10 91 90 87 82 70 67 66 60 50 47 
   5   0   0   6   0   5   0   0   0   0   0   7   5   0   0   9   0   0   0   7   0   0   0   3   0   6   0   3   0   0   0  19 98 97 95 93 90 88 87 85 84 83 82 81 80 79 78 77 69 66 61 
   1   0   0   0   0   0   6   0   0   0   0   5   0   0   0   0   7   0   0   0   0   4   0   0   0   0   0   0   0   0   0  19 95 94 91 89 86 85 84 83 82 81 80 79 78 77 73 71 70 69 62 
   1   0   7   0  10   0   4   0   0   0   6   0   0   0   0   0   0   0   0   0   0   0   0   0   0   0   0   0   0   0   7  11 94 91 88 82 79 77 70 67 66 62 57 
  10   0   0   0   0   0   0   4   0   5   0   0   0   0   0   7   7   0   0   0   0   0   0   0   0   0   0   0   8   0   0  18 98 95 92 90 89 88 86 85 84 82 80 79 78 77 76 74 73 72 
  10   0   0  10   0   0   0   0   0   9   4   0   0   0   0   0   0   0   0   0   0   0   0   0   0   0   0   0   0   0   7   8 96 90 86 81 79 78 61 42 
   1   0   0   6   5   0   4   0   0   0   0   0   0   0   0   0   0   2   0   0   0   0   0   7   0   0   0   0   0   0  10  16 97 93 92 88 86 85 84 83 79 78 77 75 74 73 70 69 
   6   0   0   0   0   0   0  10   0   0   0   0   0   0   0   0   0   0   0   0   0   0   0   0   6   5   0   0   0   0   0  14 96 94 87 86 82 81 80 78 77 75 74 70 69 66 
   2   0   0   0   0   0   0   0   0   0   0   0   0   0   0   0   0   0   0   6   0   0   0   0   0   0   0   0   0   8   0  14 99 96 90 88 85 82 79 78 77 76 73 70 69 62 
   8   0   0   0   0   0   9   0   0   0   0   0   0   0   0   0   0   0   0   6   0   0   0   0   0   0   0   0   0   0   0  10 92 87 85 81 79 75 74 69 68 66 
   3   0   0   7   0   0   0   0   0   5   5   0   0   0   8   7   0   0   0   0   8   0   0   7   0   0   0   0   6   0   0  11 96 91 86 82 81 80 78 75 74 69 66 
  10   0   0   0   0   6   7   0   0   0   0   0   0   0   0   0   0   0   0   4   0   0   4   0   6   0   0   0   0   0   0  12 84 82 81 80 79 78 77 76 75 74 73 70 
   7   0   0   8   0   0   0   5   7   0   0   0   0   0   0   0   0   0   0   0   0   0   0   0   5   0   0   0   0   0   0   8 97 93 90 87 81 76 70 63 
   9   0   0   0   0   0   0   0   0   0   0   0   0   6   0   3   0   6   0   0   0   0   0   0   0   3   0   0   0   0   0   9 94 91 89 87 83 80 75 73 72 
   1   0   0   0   0   5   0   0   0   0   0   0   0   0   0   0   0   0   8   0   0   5   0   0   0   0   7   0   0   0   0   9 95 93 90 83 81 80 75 74 73 
  10   0   0   3   8   0   0   0   8   0   0   0   0   0   0   2   0   0   0   0   0   3   0   0   8   0   0   0   7   8   0   8 97 91 88 86 83 78 75 69 
   3   0   0   0   0   4   0   0  10   0   0   0   9   0   0   0   0   0   0   0   0   0   0   0   0   0   0   0   0   0   0   7 88 82 81 77 75 74 66 
   1   0   0   0   0   0   0   0   0   0   0   0   0   0   4   0   0   0   0   0   0   0   0   0   0   0   6   0   0   8   0   8 94 93 90 84 83 79 76 75 
   3   0   0   0  10   0   0   0   0   0   0   0   0   0   0   0   0   0   0   0   0   0   0   0   0   0   0   0   0   0   0   8 89 85 84 80 75 74 73 72 
   7   0   0   0   7   6   0   7   0   5   0   0   0   0   0   0   2   0   0   0   0   0   0   0   0   0   0   0   0   0   0   7 85 84 83 79 75 73 72 
   8   0   0   0   0   0   0   5   0   0   0   0   0   0   0   0   7   0   6   0   0   5   0   5   0   0   0   0   0   8   0   7 96 88 79 77 76 74 72 
   5   0   0   0   0   0   0   0   0   0   0   0   0   0   0   0   0   0   0   0   0   0   0   0   0   0   0   0   0   0   0   7 98 85 78 77 76 74 73 
   1   0   7   0   0   0   0   0   0   0   0   0   0   0   0   6   0   0   0   0   0   0  10   0   4   0   0   0   0   0   0   7 86 85 83 82 76 74 72 
  10   0   0   0   2   0   0   0   0   0   0   0   0   0   0   0   4   0   0   5   0   0   6   7   0   0   0   0   0   0   0   4 90 84 73 62 
   8   0   0   0   0   0   0   0   0   0   0   0   0   0   0   0   7   0   9   0   0   0   0   0   0   0   0   0   0   0   8   6 89 88 79 78 74 72 
   9   0   0   7   0   0   0  10   0   0  10   0   0   0   0   0   0   0   0   0   0   0   0   0   0   0   0   0   0   0   0   6 87 82 78 75 74 72 
   4   0   0   0   0   0   0   0   0   7   6   0   0   0   0   0   0   7   0   0   0   8   0   0   0   0   0   0   0   0   0   6 94 84 81 80 77 73 
   3   3   0   0   0   0   0   0   0  10   0   7   0   0   0  10   5   5   0   0   0   0   0   0   0   0   0   0   0   0   0   4 82 77 74 66 
   3   9   0   0   0   0   0   0   0   0   0   0   0   0   0   0   0   0   0   0   0   0   0   0   0   0   0   0   0   0   3   5 89 85 80 74 72 
   4   0   0   0   0   0   0   0   0   0   0   0   0   0   0   0   0   0   0   0   0   0   0   0   0   0  10   0   0   0   0   5 81 80 79 74 72 
   3   0   0   7   0   0   0   0   0   4   0  10   0   0   0   0   0   0   0   0   0   9   0   0   0   0   0   0   0   0   5   4 90 84 82 79 
   4   0   0   0   0   0   7   0   3   0   0   0   0   0   0   0   0   0   0   0   0   7   0   0   0   0   5   0   0   0   0   4 97 86 75 72 
   7   0   0   0   0   0   0   0   0   0   0   0   0   0   0   0   0   0   0   0   0   8   0   0   0   6   0   9   0   0   0   3 75 74 73 
   4   0   0   0   0   0   0   0   0   0   0   0   0   0   0   0   0   0   0   0   0   7   0   0   0   0   0   0   0   0   0   3 92 75 72 
   8   0   7   0   8   0   0   0   0   0   6   0   0   0   0   0   7   0   4   0   0   0   0   0   0   0   0   0   5   0   0   3 86 77 73 
   5   0   0   0   0   8   7   0   0   0   0   0   0   0   4   0   9   0   0   0   6   0   0   0   5   0   0   0   0   0   0   3 87 83 74 
   3   0   0   0   0   0   0   0   0   4   0   0   0   6   0   0   0   0   0   0   0   0   0   0   0   0   0   0   0   0   0   3 83 76 73 
   1   7   0   0   0   0   0   0   0   0   0   0   0   0   0   0   0   0   0   7   0   0   0   0   5   0   0   0   0   0   0   2 76 73 
   1   0   0   0   0   0   0   6   0   0   0   0   0   0   0   0   0   0   0   0   0   0   0   9   0   0   0   0   0   0   0   2 81 78 
   4   0   0   0   0   0   0   0   0   7   0   4   0   0   0   0   0   0   0   0   0   0   0   0   6   0   0   0   0   0   0   2 93 77 
   9   0   0   0   8   0   0   7   0   0   0   8   0   6   0   0   0   7   0   0   0   0   6   7   0   0   0   0   0   0   4   1 72 
   7   0   0   0   7   0   0   0   0   0   0   9   0   0  10   0   0   7   0   0   0   0   0   0   0   0   0   0   0   0   0   1 72 
  10   0   0   0   0   6   0   0   0   0   0   0   0   9   0   6   0  10   0   4   0   0   0   0   0   0   0   0   0   0   0   1 76 
   7   0   0   0   3   0   0   5   0   0   0   0   0   0   0   0   0   0   0   6   0   0   0   0   8  10   0   0   0   0   0   1 102
   2   0   0   0   0   0   0   0   4   0   0   2   0   0   0  10   9   0   0   0   7   0   0   0   0   0   0   0   0   0   0   1 102
   7   0   0   0   5   0   0   0   0   0   4   0   0   0   0   0   0   0   0   0   0   0   0   7   0   0   0   0   0   0   0   1 102
   6   0   0   0   0   0   0   0   0   8   0   0   0   0   9   0   4   0   0   0   0   0   0   0   0   0   0   0   0   0   9   1 102
  10   0   0   0   0   0   0   0   0   0   8   0   0   0   0   0   3   0   4   0   0   0   0   0   0   0   0   0   0   0   0   1 102
   8   0   0   0   0   0   0   0   0   0   0   7   4   0   7   0   0   0   0   0   0   0   0   0  10   8   0   0   0   0   0   1 102
   8   0   0   0   5   4   0   0   0   0   0   0   0   0   5   0   0   0   0   0   0   0   0   7   9   0   0   0   0   5   0   1 102
   9   0   0   0   0  10   3   0   0   0   0   0   0   7   0   0   9   0   0   0   0   0   0   0   0   0   0   0   0   0   0   1 102
   2   0   6   0   0   0   0   0   0   0   0   0   5  10   0   0   0   0   7   0   0   6   0   0   0   0   0   0   0   8   5   1 102
   5   0   0   0   0   0   0   0   0   0   6   4   0   0   0   0   0   0   6   0   0   0   0   0   0   0   0   0   0   0   0   1 102
   6   0   0   0   0   0   6   0   0   0   0   8   0   0   0   0   0   0   0   0   0   0   0   0   0   0   0   0   0   0   0   1 102
   9   0   0   5   0   0   0   0   0   0   0   0   0   0   0   0   7   0   0   0   0   0   0   0   0   0   0   0   0   3   0   1 102
   3   0   0   7   0   0   0   0   0   0   0   0   0   0   0   0   0   0   0   0   0   5   0   0   0   0   0   0   0   0   0   1 102
   7   0   0   8   0   0   0   0   0   0   0   0   0   0   0   0   0   0   0   0   0   0   0   0   0   0   0   0   0   0   0   1 102
   2   0   0   0   0   0   7   0   9   0   0   0   0   0   0   0   0   0   0   0   0   0   0   0   6   0   0   0   0   0   7   1 102
  10   0   0   0   0   7   0   0   0   0   0   0   0   0   0   0   0   0   0   0   0   8   0   0   0   0   0   0   0   0   0   1 102
   1   6   0   0   0   0   6   0   0   0   0   6   0   0   0   7   0   0   0   0   0   0   0   0   0   0   0   6   0   0   0   1 102
   8   0   0   0   5   0   0   0   0   0   0   0   0   4   0   0   0   0   0  10   0   0   0   0   0   0   0   0   0   0   0   1 102
   1   0   0   0   0  10   0   0   0   8   0   0   0   0   0   0  10   0   6   0   0   0   0   0   0   0   0   0   0   0   0   1 102
   5   0   0   0   0   0   0   0   7   0   6   7   0   0   0   0   0   0  10   0   4   2   0   0   7   0   0   0   9   0   0   1 102
   7   0   9   0   0   0   0   0   0   0   0   0   6   0   0   0   0   0   0   0   0   0   0   0   0   0   0  10   0   5   0   1 102
   9   0   0   0   0   0   0   0   0   0   0   0   0   0   8   6   0   0   0   0   0   8   0   0   0   0   0   0   0   0   0   1 102
   7   0   0   0   0   5   0   0   7   0   0   4   0   0   0   0   5   0   0   0   0   0   0   0   0   6   0   0   0   8   0   1 102
   8   0   0   0   0   0   0   9   0   0   0   0   0   0   0   0   0   0   0   0   0   0   0   0   0   0   0   0   0   7   0   1 102
   9   0   0   4   0   0   0   0   5   0   0   5   0   0   0   0   0   0   0   0   0   0   0   0   0   0   0   5   0   0   0   1 102
   1   0   0   0   0   0   0   6   0   0   0   0   0   0   0   0   0   0   0   4   0   0   0   0   0   0   0   0   0   0   0   1 102
   6   0   0   0   0   6   0   4   0   0   0   0   0   0   0   0   0   0   0   0   0   0   0   0   0   0   0   0   7   0   0   1 102
  10   0   0   0   0   0   6   0   0   0   0   2   0   0   0   0   5   0   0   0   0   0   0   0   0   0   0   0   0   0   8   1 102
   9   0   0   0   0   3   0   0   0   0   0   0   0   0   0   0   0   0   0   7   0   0   0   0   0   0   0   0   0   0   5   1 102
   5   0   0   0   5   0   0   0   0   0   0   0   0   0   0   3   0   0   0   0   0   9   0   0   0   0   0   0   0   5   0   1 102
   0   0   0   0   0   0   0   0   0   0   0   0   0   0   0   0   0   0   0   0   0   0   0   0   0   0   0   0   0   0   0   0 
